Problem:    
Rows:       256
Columns:    89 (72 integer, 72 binary)
Non-zeros:  960
Status:     INTEGER OPTIMAL
Objective:  value = 15.230026 (MINimum)

   No.   Row name        Activity     Lower bound   Upper bound
------ ------------    ------------- ------------- -------------
     1 r.5                   1015.23             0               
     2 r.6                  -996.995      -998.893               
     3 r.7                     15.23             0               
     4 r.8                   3.00497      -994.985               
     5 r.9                     15.23             0               
     6 r.10                 -997.834      -998.632               
     7 r.11                  1015.23             0               
     8 r.12                 -986.353      -993.698               
     9 r.13                  1015.23             0               
    10 r.14                 -986.004      -998.756               
    11 r.15                    15.23             0               
    12 r.16                   13.996      -991.577               
    13 r.17                    15.23             0               
    14 r.18                  13.3131      -999.414               
    15 r.19                  1015.23             0               
    16 r.20                 -993.263      -995.548               
    17 r.21                  1015.23             0               
    18 r.22                 -998.102        -998.9               
    19 r.23                    15.23             0               
    20 r.24                  3.00497      -994.669               
    21 r.25                  1015.23             0               
    22 r.26                 -999.695      -999.695               
    23 r.27                    15.23             0               
    24 r.28                  -995.68       -995.68               
    25 r.29                  1015.23             0               
    26 r.30                 -987.248      -990.253               
    27 r.31                    15.23             0               
    28 r.32                    15.23      -983.912               
    29 r.33                  1015.23             0               
    30 r.34                  -984.77      -998.766               
    31 r.35                    15.23             0               
    32 r.36                    15.23      -995.975               
    33 r.37                        1             1             = 
    34 r.38                        1             1             = 
    35 r.39                        1             1             = 
    36 r.40                        1             1             = 
    37 r.41                        1             1             = 
    38 r.42                        1             1             = 
    39 r.43                        1             1             = 
    40 r.44                        1             1             = 
    41 r.45                     1001             2               
    42 r.46                    -1001         -1001               
    43 r.47                  999.161      -998.632               
    44 r.48                     1001             2               
    45 r.49                    -1001         -1001               
    46 r.50                  2010.64      -993.698               
    47 r.51                        2             2               
    48 r.52                       -2         -1001               
    49 r.53                 -989.009      -998.756               
    50 r.54                     1000             2               
    51 r.55                    -1000         -1001               
    52 r.56                  2010.99      -991.577               
    53 r.57                     1001             2               
    54 r.58                    -1001         -1001               
    55 r.59                  2010.31      -999.414               
    56 r.60                     1001             2               
    57 r.61                    -1001         -1001               
    58 r.62                  2003.73      -995.548               
    59 r.63                        2             2               
    60 r.64                       -2         -1001               
    61 r.65                 -1.10713        -998.9               
    62 r.66                     1000             2               
    63 r.67                    -1000         -1001               
    64 r.68                     2000      -994.669               
    65 r.69                 -997.793      -998.893               
    66 r.70                  2.20738      -994.985               
    67 r.71                -0.798813      -998.893               
    68 r.72                  999.201      -994.985               
    69 r.73                 -990.253      -990.253               
    70 r.74                  12.2251      -983.912               
    71 r.75                 -990.253      -990.253               
    72 r.76                  12.2251      -983.912               
    73 r.77                        2             2               
    74 r.78                       -2         -1001               
    75 r.79                 -987.775      -998.766               
    76 r.80                     1000             2               
    77 r.81                    -1000         -1001               
    78 r.82                  2012.23      -995.975               
    79 r.83                     1001             2               
    80 r.84                    -1001         -1001               
    81 r.85                  3001.15       1.10713               
    82 r.86                     1001             2               
    83 r.87                    -1001         -1001               
    84 r.88                  1989.01       5.01518               
    85 r.89                     1001             2               
    86 r.90                    -1001         -1001               
    87 r.91                  2012.15      -998.756               
    88 r.92                     1001             2               
    89 r.93                    -1001         -1001               
    90 r.94                     2000      -991.577               
    91 r.95                     1000             2               
    92 r.96                    -1000         -1001               
    93 r.97                  3011.46      -999.414               
    94 r.98                        2             2               
    95 r.99                       -2         -1001               
    96 r.100                -7.25891      -995.548               
    97 r.101                    1001             2               
    98 r.102                   -1001         -1001               
    99 r.103                 3000.05        -998.9               
   100 r.104                    1001             2               
   101 r.105                   -1001         -1001               
   102 r.106                 1989.01      -994.669               
   103 r.107                -998.632      -998.632               
   104 r.108                -987.151      -993.698               
   105 r.109                -1.63777      -998.632               
   106 r.110                 9.84288      -993.698               
   107 r.111                    1001             2               
   108 r.112                   -1001         -1001               
   109 r.113                  2010.9      -990.253               
   110 r.114                    1001             2               
   111 r.115                   -1001         -1001               
   112 r.116                 2001.23      -983.912               
   113 r.117                 13.3793      -998.766               
   114 r.118                 1013.38      -995.975               
   115 r.119                -998.766      -998.766               
   116 r.120                 1.23407      -995.975               
   117 r.121                       2             2               
   118 r.122                      -2         -1001               
   119 r.123                 989.009       1.10713               
   120 r.124                    1000             2               
   121 r.125                   -1000         -1001               
   122 r.126                 1989.01       5.01518               
   123 r.127                    1001             2               
   124 r.128                   -1001         -1001               
   125 r.129                 1988.17       1.36842               
   126 r.130                    1001             2               
   127 r.131                   -1001         -1001               
   128 r.132                 1999.65       6.30223               
   129 r.133                -998.756      -998.756               
   130 r.134                  1.2443      -991.577               
   131 r.135                -993.348      -998.756               
   132 r.136                 6.65151      -991.577               
   133 r.137                       2             2               
   134 r.138                      -2         -1001               
   135 r.139                -12.0981        -998.9               
   136 r.140                    1000             2               
   137 r.141                   -1000         -1001               
   138 r.142                 1989.01      -994.669               
   139 r.143                -986.802      -998.756               
   140 r.144                 13.1984      -991.577               
   141 r.145                 10.1922      -998.756               
   142 r.146                 1010.19      -991.577               
   143 r.147                       2             2               
   144 r.148                      -2         -1001               
   145 r.149                 -1.2443      -990.253               
   146 r.150                    1000             2               
   147 r.151                   -1000         -1001               
   148 r.152                 2001.23      -983.912               
   149 r.153                -998.766      -998.766               
   150 r.154                 1.23407      -995.975               
   151 r.155                -998.766      -998.766               
   152 r.156                 1.23407      -995.975               
   153 r.157                    1001             2               
   154 r.158                   -1001         -1001               
   155 r.159                 1990.25       1.10713               
   156 r.160                    1001             2               
   157 r.161                   -1001         -1001               
   158 r.162                 1995.66       5.01518               
   159 r.163                    1000             2               
   160 r.164                   -1000         -1001               
   161 r.165                 989.414       1.36842               
   162 r.166                       2             2               
   163 r.167                      -2         -1001               
   164 r.168                 6.30223       6.30223               
   165 r.169                    1001             2               
   166 r.170                   -1001         -1001               
   167 r.171                 1989.15        -998.9               
   168 r.172                    1001             2               
   169 r.173                   -1001         -1001               
   170 r.174                 1995.66      -994.669               
   171 r.175                 12.5155      -999.414               
   172 r.176                -994.061      -995.548               
   173 r.177                 1009.51      -999.414               
   174 r.178                 2.93326      -995.548               
   175 r.179                    1001             2               
   176 r.180                   -1001         -1001               
   177 r.181                    2000      -990.253               
   178 r.182                    1001             2               
   179 r.183                   -1001         -1001               
   180 r.184                 2007.89      -983.912               
   181 r.185                -997.522      -998.766               
   182 r.186                 2.47837      -995.975               
   183 r.187                -992.114      -998.766               
   184 r.188                 7.88558      -995.975               
   185 r.189                       2             2               
   186 r.190                      -2         -1001               
   187 r.191                 1.10713       1.10713               
   188 r.192                    1000             2               
   189 r.193                   -1000         -1001               
   190 r.194                    2000       5.01518               
   191 r.195                    1001             2               
   192 r.196                   -1001         -1001               
   193 r.197                 1000.27       1.36842               
   194 r.198                    1001             2               
   195 r.199                   -1001         -1001               
   196 r.200                 2010.64       6.30223               
   197 r.201                       2             2               
   198 r.202                      -2         -1001               
   199 r.203                 12.0981        1.2443               
   200 r.204                    1000             2               
   201 r.205                   -1000         -1001               
   202 r.206                 2010.99       8.42265               
   203 r.207                    1001             2               
   204 r.208                   -1001         -1001               
   205 r.209                 2011.42      0.585983               
   206 r.210                    1001             2               
   207 r.211                   -1001         -1001               
   208 r.212                 2003.73       4.45246               
   209 r.213                  -998.9        -998.9               
   210 r.214                 2.20738      -994.669               
   211 r.215                -1.90595        -998.9               
   212 r.216                 999.201      -994.669               
   213 r.217                -989.146      -990.253               
   214 r.218                 13.3322      -983.912               
   215 r.219                -990.253      -990.253               
   216 r.220                 12.2251      -983.912               
   217 r.221                -986.668      -998.766               
   218 r.222                 13.3322      -995.975               
   219 r.223                -987.775      -998.766               
   220 r.224                 12.2251      -995.975               
   221 r.225                    1001             2               
   222 r.226                   -1001         -1001               
   223 r.227                 1989.41       1.36842               
   224 r.228                    1001             2               
   225 r.229                   -1001         -1001               
   226 r.230                 1998.42       6.30223               
   227 r.231                       2             2               
   228 r.232                      -2         -1001               
   229 r.233                  1.2443        1.2443               
   230 r.234                    1000             2               
   231 r.235                   -1000         -1001               
   232 r.236                 1998.77       8.42265               
   233 r.237                    1001             2               
   234 r.238                   -1001         -1001               
   235 r.239                 2000.56      0.585983               
   236 r.240                    1001             2               
   237 r.241                   -1001         -1001               
   238 r.242                 1991.51       4.45246               
   239 r.243                       2             2               
   240 r.244                      -2         -1001               
   241 r.245                -997.522      -998.766               
   242 r.246                    1000             2               
   243 r.247                   -1000         -1001               
   244 r.248                    2000      -995.975               
   245 r.249                       2             2               
   246 r.250                      -2         -1001               
   247 r.251                 987.775       1.10713               
   248 r.252                    1000             2               
   249 r.253                   -1000         -1001               
   250 r.254                 1987.77       5.01518               
   251 r.255                       2             2               
   252 r.256                      -2         -1001               
   253 r.257                 997.522       9.74669               
   254 r.258                    1000             2               
   255 r.259                   -1000         -1001               
   256 r.260                    2000        16.088               

   No. Column name       Activity     Lower bound   Upper bound
------ ------------    ------------- ------------- -------------
     1 tt                      15.23             0               
     2 s_1_1        *              1             0             1 
     3 t_1_1                 12.2251             0               
     4 s_1_7        *              1             0             1 
     5 s_2_1        *              0             0             1 
     6 t_2_1                 12.2251             0               
     7 s_2_7        *              0             0             1 
     8 s_1_2        *              0             0             1 
     9 t_1_2                 1013.38             0               
    10 s_1_8        *              1             0             1 
    11 s_2_2        *              1             0             1 
    12 t_2_2                 1.23407             0               
    13 s_2_8        *              0             0             1 
    14 s_1_3        *              1             0             1 
    15 t_1_3                 1.23407             0               
    16 s_2_3        *              0             0             1 
    17 t_2_3                 1.23407             0               
    18 s_1_4        *              0             0             1 
    19 t_1_4                 2.47837             0               
    20 s_2_4        *              1             0             1 
    21 t_2_4                 7.88558             0               
    22 s_1_5        *              1             0             1 
    23 t_1_5                 13.3322             0               
    24 s_2_5        *              0             0             1 
    25 t_2_5                 12.2251             0               
    26 s_1_6        *              1             0             1 
    27 t_1_6                 14.4324             0               
    28 s_2_6        *              0             0             1 
    29 t_2_6                 1011.43             0               
    30 t_1_7                 2.47837             0               
    31 t_2_7                       0             0               
    32 t_1_8                       0             0               
    33 t_2_8                       0             0               
    34 r_1_1_2      *              1             0             1 
    35 u_1_1_2      *              0             0             1 
    36 r_2_1_2      *              1             0             1 
    37 u_2_1_2      *              0             0             1 
    38 r_1_1_3      *              0             0             1 
    39 u_1_1_3      *              1             0             1 
    40 r_2_1_3      *              1             0             1 
    41 u_2_1_3      *              0             0             1 
    42 r_1_1_4      *              1             0             1 
    43 u_1_1_4      *              0             0             1 
    44 r_2_1_4      *              1             0             1 
    45 u_2_1_4      *              0             0             1 
    46 r_1_1_5      *              0             0             1 
    47 u_1_1_5      *              0             0             1 
    48 r_2_1_5      *              1             0             1 
    49 u_2_1_5      *              0             0             1 
    50 r_1_1_8      *              0             0             1 
    51 u_1_1_8      *              1             0             1 
    52 r_2_1_8      *              1             0             1 
    53 u_2_1_8      *              0             0             1 
    54 r_1_2_3      *              1             0             1 
    55 u_1_2_3      *              1             0             1 
    56 r_2_2_3      *              1             0             1 
    57 u_2_2_3      *              0             0             1 
    58 r_1_2_4      *              1             0             1 
    59 u_1_2_4      *              0             0             1 
    60 r_2_2_4      *              0             0             1 
    61 u_2_2_4      *              0             0             1 
    62 r_1_2_5      *              1             0             1 
    63 u_1_2_5      *              0             0             1 
    64 r_2_2_5      *              1             0             1 
    65 u_2_2_5      *              0             0             1 
    66 r_1_2_7      *              1             0             1 
    67 u_1_2_7      *              1             0             1 
    68 r_2_2_7      *              1             0             1 
    69 u_2_2_7      *              0             0             1 
    70 r_1_3_5      *              0             0             1 
    71 u_1_3_5      *              0             0             1 
    72 r_2_3_5      *              1             0             1 
    73 u_2_3_5      *              0             0             1 
    74 r_1_3_7      *              0             0             1 
    75 u_1_3_7      *              0             0             1 
    76 r_2_3_7      *              1             0             1 
    77 u_2_3_7      *              0             0             1 
    78 r_1_4_5      *              1             0             1 
    79 u_1_4_5      *              0             0             1 
    80 r_2_4_5      *              1             0             1 
    81 u_2_4_5      *              0             0             1 
    82 r_1_4_7      *              1             0             1 
    83 u_1_4_7      *              0             0             1 
    84 r_2_4_7      *              1             0             1 
    85 u_2_4_7      *              0             0             1 
    86 r_1_7_8      *              0             0             1 
    87 u_1_7_8      *              1             0             1 
    88 r_2_7_8      *              1             0             1 
    89 u_2_7_8      *              0             0             1 

Integer feasibility conditions:

KKT.PE: max.abs.err = 4.55e-13 on row 81
        max.rel.err = 7.57e-17 on row 125
        High quality

KKT.PB: max.abs.err = 1.14e-13 on row 209
        max.rel.err = 3.16e-16 on row 187
        High quality

End of output
